44
75
60	3
59	2
58	1
57	1
56	1
55	2
54	4
53	1
52	4
51	1
50	3
49	5
48	2
47	1
46	1
45	5
44	3
40	1
39	2
38	4
37	3
36	1
33	4
32	1
31	1
29	4
28	2
26	3
25	1
24	1
22	1
21	3
20	2
19	3
18	3
17	2
16	1
14	4
13	1
12	1
11	3
10	5
9	2
7	1
